65	65	14	14	130	14	14	65	65	
65	119	14	14	139	14	14	130	65	
14	14	126	65	65	65	139	14	14	
139	14	65	65	65	65	65	14	139	
14	126	65	65	65	65	65	130	14	
14	14	65	65	65	65	65	14	14	
65	65	65	65	65	65	65	14	139	
65	65	65	65	65	65	65	130	14	
65	65	65	65	65	65	65	14	14	
65	65	65	65	65	65	65	14	119	
65	65	65	65	65	65	65	130	14	
65	65	65	65	65	65	65	14	14	
65	65	65	65	65	65	65	14	119	
65	65	65	65	65	65	65	130	14	
65	65	65	65	65	65	65	14	14	
65	65	65	65	65	65	65	14	119	
65	65	65	65	65	65	65	130	14	
65	65	65	65	65	65	65	14	14	
